c preprocessed version of lin105.tsp, 96 vertices, 272 edges
p td 96 272
0 1
0 2
91 0
2 1
1 10
1 9
1 8
91 1
3 2
2 8
2 4
3 4
3 5
5 4
4 8
4 7
4 6
5 6
6 7
6 37
8 7
7 34
7 36
7 37
8 9
8 26
8 25
8 34
9 10
9 24
9 26
10 11
10 12
10 24
91 10
12 11
11 21
11 13
11 22
11 23
11 24
12 13
91 12
14 13
15 13
16 13
17 13
21 13
91 13
14 15
90 14
91 14
15 16
90 15
16 17
90 16
17 18
17 20
17 19
17 21
90 17
19 18
30 18
31 18
43 18
18 57
18 50
18 49
18 42
75 18
90 18
20 19
19 30
19 28
19 29
21 20
20 28
22 21
21 28
23 22
22 28
24 23
25 23
23 28
23 27
24 25
24 26
26 25
25 27
25 34
28 27
27 29
27 33
27 34
28 29
30 29
33 29
32 29
31 29
30 31
32 31
31 43
31 44
33 32
46 32
32 44
32 45
34 33
33 46
33 35
34 35
34 36
36 35
35 46
35 45
35 47
35 40
37 36
36 40
36 39
36 38
37 38
38 39
38 65
40 39
53 39
39 62
39 64
39 65
40 41
48 40
47 40
40 53
42 41
41 49
48 41
41 52
41 53
43 42
42 49
42 48
44 43
43 48
45 44
44 48
44 47
46 45
45 47
48 47
49 50
49 51
49 52
51 50
50 57
50 56
50 92
50 55
51 52
51 92
52 53
52 92
52 54
53 54
53 62
54 55
54 92
54 61
54 62
55 56
55 59
55 92
55 60
55 61
56 57
56 58
56 59
58 57
57 74
75 57
58 59
58 74
58 73
59 60
59 73
59 70
61 60
60 71
60 70
62 61
61 71
61 63
62 63
62 64
64 63
63 71
63 72
63 69
63 68
63 67
65 64
64 67
64 66
65 66
66 67
66 88
67 68
67 87
67 88
69 68
78 68
68 77
68 86
68 87
70 69
72 69
79 69
69 78
71 70
70 73
72 70
70 79
71 72
73 74
73 80
73 79
84 73
75 74
84 74
85 74
76 75
75 82
90 75
83 75
85 75
76 77
76 86
76 89
82 76
78 77
77 86
82 77
79 78
81 78
82 78
80 79
79 81
80 81
84 80
82 81
84 81
83 81
83 82
84 83
83 85
84 85
87 86
86 89
88 87
87 89
88 89
90 91
93 0
93 2
93 3
93 94
93 95
93 91
94 3
94 5
95 94
95 90
95 91
